(declare-const a Real)
(declare-const b Real)
(declare-const c Real)
(assert (<= (+ (pow a 2) (pow b 2) (pow c 2) (pow (+ a b c) 2)) 4))
(assert (>= a 0))
(assert (>= b 0))
(assert (>= c 0))
(assert (not (<= (+ (* -16 (pow a 2)) (* 3 (pow (+ a b) 4)) (* 3 (pow (+ a c) 4)) (* 5 (pow (+ b c) 4)) (* (pow (* 32 (pow c 2) (pow (* 64 c (pow (+ 1 (* a b)) (/ 1 2)) (pow (+ 1 (* a c)) (/ 1 2))) b) (pow (+ 1 (* a b)) (/ 1 2)) (pow (+ 1 (* a c)) (/ 1 2))) (pow (+ 1 b) -1)) (+ -1 (* -1 b))) (* -32 (pow b 2) (pow (* (+ 1 (* a b)) (+ 1 (* a c))) (/ 1 2))) (* -16 a b) (* -16 a c) (* -16 b c) (* 48 a (pow b 3)) (* 48 a (pow c 3)) (* 48 b (pow c 3)) (* 48 c (pow b 3)) (* 80 b c (pow a 2)) (* 128 a b (pow c 2)) (* 128 a c (pow b 2))) 0)))
(check-sat)
(get-model)
(exit)